
Gurobi 11.0.1 (win64) logging started Thu May 16 18:15:14 2024

Set parameter LogFile to value "output/solver_log0.txt"
Gurobi Optimizer version 11.0.1 build v11.0.1rc0 (win64 - Windows 11.0 (22631.2))

CPU model: 11th Gen Intel(R) Core(TM) i7-1165G7 @ 2.80GHz, instruction set [SSE2|AVX|AVX2|AVX512]
Thread count: 4 physical cores, 8 logical processors, using up to 8 threads

Optimize a model with 6229 rows, 1703 columns and 121507 nonzeros
Model fingerprint: 0x79f11078
Variable types: 568 continuous, 1135 integer (1135 binary)
Coefficient statistics:
  Matrix range     [4e-01, 1e+05]
  Objective range  [1e+00, 1e+02]
  Bounds range     [1e+00, 1e+00]
  RHS range        [1e-02, 1e+05]

User MIP start produced solution with objective 39938.6 (0.01s)
User MIP start produced solution with objective 39938.6 (0.01s)
Loaded user MIP start with objective 39938.6

Presolve removed 1018 rows and 552 columns
Presolve time: 0.15s
Presolved: 5211 rows, 1151 columns, 101691 nonzeros
Variable types: 531 continuous, 620 integer (612 binary)

Root relaxation: objective 6.128499e+04, 2104 iterations, 0.11 seconds (0.20 work units)

    Nodes    |    Current Node    |     Objective Bounds      |     Work
 Expl Unexpl |  Obj  Depth IntInf | Incumbent    BestBd   Gap | It/Node Time

     0     0 61284.9852    0   71 39938.5937 61284.9852  53.4%     -    0s
     0     0 60142.1689    0   92 39938.5937 60142.1689  50.6%     -    0s
     0     0 59934.9641    0   88 39938.5937 59934.9641  50.1%     -    1s
     0     0 59934.9641    0   89 39938.5937 59934.9641  50.1%     -    1s
     0     0 59121.2054    0  127 39938.5937 59121.2054  48.0%     -    1s
     0     0 58997.4793    0  125 39938.5937 58997.4793  47.7%     -    1s
     0     0 58997.4793    0  125 39938.5937 58997.4793  47.7%     -    1s
     0     0 58185.9542    0   94 39938.5937 58185.9542  45.7%     -    1s
     0     0 58109.9381    0   89 39938.5937 58109.9381  45.5%     -    2s
     0     0 58109.1781    0   88 39938.5937 58109.1781  45.5%     -    2s
     0     0 58109.0745    0   97 39938.5937 58109.0745  45.5%     -    2s
     0     0 57517.0373    0  108 39938.5937 57517.0373  44.0%     -    2s
     0     0 57124.6848    0  110 39938.5937 57124.6848  43.0%     -    2s
     0     0 57124.6848    0   94 39938.5937 57124.6848  43.0%     -    2s
     0     0 57124.6848    0   98 39938.5937 57124.6848  43.0%     -    2s
     0     0 57124.6848    0   95 39938.5937 57124.6848  43.0%     -    2s
     0     0 57124.6848    0  109 39938.5937 57124.6848  43.0%     -    3s
     0     0 57124.6848    0  114 39938.5937 57124.6848  43.0%     -    3s
     0     0 57124.6848    0  115 39938.5937 57124.6848  43.0%     -    3s
     0     0 57124.6848    0  114 39938.5937 57124.6848  43.0%     -    3s
     0     0 57020.2261    0  118 39938.5937 57020.2261  42.8%     -    3s
     0     0 57020.2261    0  123 39938.5937 57020.2261  42.8%     -    3s
     0     0 57020.2261    0  114 39938.5937 57020.2261  42.8%     -    3s
     0     0 57020.2261    0  119 39938.5937 57020.2261  42.8%     -    3s
     0     0 57020.2261    0  118 39938.5937 57020.2261  42.8%     -    3s
     0     0 57020.2261    0  113 39938.5937 57020.2261  42.8%     -    4s
     0     0 57020.2261    0  114 39938.5937 57020.2261  42.8%     -    4s
     0     0 57020.2261    0  128 39938.5937 57020.2261  42.8%     -    4s
     0     0 57020.2261    0  123 39938.5937 57020.2261  42.8%     -    4s
     0     0 57020.2261    0  133 39938.5937 57020.2261  42.8%     -    4s
     0     0 57020.2261    0  133 39938.5937 57020.2261  42.8%     -    4s
     0     2 57020.2261    0  133 39938.5937 57020.2261  42.8%     -    4s
     3     8 56504.0886    2  118 39938.5937 56504.0886  41.5%   576    5s
H   28    32                    39956.191618 55657.6621  39.3%   569    6s
   114    89     cutoff   18      39956.1916 55651.3565  39.3%   748   10s
H  122    91                    39961.136541 55651.3565  39.3%   748   11s
H  125    91                    39971.795915 55651.3565  39.2%   739   11s
H  127    91                    39983.458994 55651.3565  39.2%   749   11s
   219   171 40603.8163   17   79 39983.4590 55651.3565  39.2%   825   15s
H  736   452                    39990.304599 55230.5322  38.1%   406   21s
   929   573 42483.7133   10   69 39990.3046 54319.6138  35.8%   479   25s
  1110   625 42025.3897    8  104 39990.3046 53492.0547  33.8%   551   30s
  1344   702     cutoff   12      39990.3046 52635.2059  31.6%   576   35s
H 1544   641                    39999.713977 52193.2439  30.5%   545   38s
  1703   707 40076.6933   16  133 39999.7140 51744.6196  29.4%   523   45s
  1720   718 43643.5325   14  167 39999.7140 51744.6196  29.4%   518   50s
H 1724   684                    40000.109357 51744.6196  29.4%   516   52s
  1734   696 51312.0622   13  199 40000.1094 51744.6196  29.4%   527   55s
  1832   712 42023.7423   18  172 40000.1094 48503.0478  21.3%   536   60s

Cutting planes:
  Gomory: 3
  Implied bound: 6
  Projected implied bound: 1
  MIR: 35
  Flow cover: 35
  RLT: 5
  Relax-and-lift: 5

Explored 1842 nodes (1003791 simplex iterations) in 60.02 seconds (134.62 work units)
Thread count was 8 (of 8 available processors)

Solution count 8: 40000.1 39999.7 39990.3 ... 39938.6

Time limit reached
Best objective 4.000010935741e+04, best bound 4.850304778944e+04, gap 21.2573%
